Maximize

x_0_0 + x_0_1 + x_0_2 + x_1_0 + x_1_1 + x_1_2 + x_2_0 + x_2_1 + x_2_2 + x_3_0 + x_3_1 + x_3_2 + x_4_0 + x_4_1 + x_4_2 + x_5_0 + x_5_1 + x_5_2


Subject To

a0: x_0_0 + x_0_1 + x_0_2 <= 1
a1: x_1_0 + x_1_1 + x_1_2 <= 1
a2: x_2_0 + x_2_1 + x_2_2 <= 1
a3: x_3_0 + x_3_1 + x_3_2 <= 1
a4: x_4_0 + x_4_1 + x_4_2 <= 1
a5: x_5_0 + x_5_1 + x_5_2 <= 1
b0: 4 x_0_0 + 2 x_1_0 + 3 x_2_0 + 1 x_3_0 + 6 x_4_0 + 2 x_5_0 <= 3
b1: 4 x_0_1 + 2 x_1_1 + 3 x_2_1 + 1 x_3_1 + 6 x_4_1 + 2 x_5_1 <= 4
b2: 4 x_0_2 + 2 x_1_2 + 3 x_2_2 + 1 x_3_2 + 6 x_4_2 + 2 x_5_2 <= 5



Bounds


x_0_0 <= 1
x_0_1 <= 1
x_0_2 <= 1
x_1_0 <= 1
x_1_1 <= 1
x_1_2 <= 1
x_2_0 <= 1
x_2_1 <= 1
x_2_2 <= 1
x_3_0 <= 1
x_3_1 <= 1
x_3_2 <= 1
x_4_0 <= 1
x_4_1 <= 1
x_4_2 <= 1
x_5_0 <= 1
x_5_1 <= 1
x_5_2 <= 1



Binary

x_0_0 x_0_1 x_0_2 x_1_0 x_1_1 x_1_2 x_2_0 x_2_1 x_2_2 x_3_0 x_3_1 x_3_2 x_4_0 x_4_1 x_4_2 x_5_0 x_5_1 x_5_2 x_0_0 x_0_1 x_0_2 x_1_0 x_1_1 x_1_2 x_2_0 x_2_1 x_2_2 x_3_0 x_3_1 x_3_2 x_4_0 x_4_1 x_4_2 x_5_0 x_5_1 x_5_2

 


End
